%BLOCK LATTICE_CART
14.9204328758  8.61431597965  0.0
14.9204328758  -8.61431597965  0.0
0.0  0.0  29.9999880884
%ENDBLOCK LATTICE_CART

%BLOCK POSITIONS_FRAC
C 0.000850228088358  0.000850228088358   0.5
C 0.0487011858806  0.0487011858806   0.5
C 0.143266729396  0.00254711351201   0.5
C 0.191463933586  0.0499436314397   0.5
C 0.286362776059  0.00238622170467   0.5
C 0.334391635445  0.0499138524395   0.5
C 0.429297352367  0.000554752292203   0.5
C 0.477211147799  0.0483063341412   0.5
C 0.572156402957  0.997785873856   0.5
C 0.620838492096  0.0439656946723   0.5
C 0.715756354656  0.996624289279   0.5
C 0.765658254832  0.0423153127552   0.5
C 0.85937224691  0.997505828831   0.5
C 0.907256075931  0.045389657852   0.5
C 0.00254711351201  0.143266729396   0.5
C 0.0499436314397  0.191463933586   0.5
C 0.145007520134  0.145007520134   0.5
C 0.192888369509  0.192888369509   0.5
C 0.288180605108  0.145764753205   0.5
C 0.336260461484  0.193933189781   0.5
C 0.431368178953  0.144870788419   0.5
C 0.480269745262  0.192155822801   0.5
C 0.575440715362  0.138588736696   0.5
C 0.628223237987  0.179764988156   0.5
C 0.721718363999  0.135320817848   0.5
C 0.769441086914  0.183043540763   0.5
C 0.862446592007  0.13910364993   0.5
C 0.908137615483  0.189005550106   0.5
C 0.00238622170467  0.286362776059   0.5
C 0.0499138524395  0.334391635445   0.5
C 0.145764753205  0.288180605108   0.5
C 0.193933189781  0.336260461484   0.5
C 0.290294017294  0.290294017294   0.5
C 0.338955268677  0.338955268677   0.5
C 0.436029446364  0.28972731571   0.5
C 0.494568630569  0.327529281545   0.5
C 0.586241160492  0.271146830556   0.5
C 0.633615074206  0.31852074427   0.5
C 0.724996916606  0.276538666775   0.5
C 0.766173168066  0.3293211894   0.5
C 0.86079621009  0.283923412666   0.5
C 0.906976030906  0.332605501805   0.5
C 0.000554752292203  0.429297352367   0.5
C 0.0483063341412  0.477211147799   0.5
C 0.144870788419  0.431368178953   0.5
C 0.192155822801  0.480269745262   0.5
C 0.28972731571  0.436029446364   0.5
C 0.327529281545  0.494568630569   0.5
C 0.414154115137  0.490607789625   0.5
C 0.490607789625  0.414154115137   0.5
C 0.577232623217  0.410193274192   0.5
C 0.615034589052  0.468732458397   0.5
C 0.712606081961  0.424492159499   0.5
C 0.759891116343  0.473393725808   0.5
C 0.856455570621  0.427550756962   0.5
C 0.90420715247  0.475464552394   0.5
C 0.997785873856  0.572156402957   0.5
C 0.0439656946723  0.620838492096   0.5
C 0.138588736696  0.575440715362   0.5
C 0.179764988156  0.628223237987   0.5
C 0.271146830556  0.586241160492   0.5
C 0.31852074427  0.633615074206   0.5
C 0.410193274192  0.577232623217   0.5
C 0.468732458397  0.615034589052   0.5
C 0.565806636085  0.565806636085   0.5
C 0.614467887468  0.614467887468   0.5
C 0.710828714981  0.568501443278   0.5
C 0.758997151557  0.616581299654   0.5
C 0.854848052323  0.570370269317   0.5
C 0.902375683057  0.618399128703   0.5
C 0.996624289279  0.715756354656   0.5
C 0.0423153127552  0.765658254832   0.5
C 0.135320817848  0.721718363999   0.5
C 0.183043540763  0.769441086914   0.5
C 0.276538666775  0.724996916606   0.5
C 0.3293211894  0.766173168066   0.5
C 0.424492159499  0.712606081961   0.5
C 0.473393725808  0.759891116343   0.5
C 0.568501443278  0.710828714981   0.5
C 0.616581299654  0.758997151557   0.5
C 0.711873535253  0.711873535253   0.5
C 0.759754384628  0.759754384628   0.5
C 0.854818273322  0.713297971176   0.5
C 0.90221479125  0.761495175366   0.5
C 0.997505828831  0.85937224691   0.5
C 0.045389657852  0.907256075931   0.5
C 0.13910364993  0.862446592007   0.5
C 0.189005550106  0.908137615483   0.5
C 0.283923412666  0.86079621009   0.5
C 0.332605501805  0.906976030906   0.5
C 0.427550756962  0.856455570621   0.5
C 0.475464552394  0.90420715247   0.5
C 0.570370269317  0.854848052323   0.5
C 0.618399128703  0.902375683057   0.5
C 0.713297971176  0.854818273322   0.5
C 0.761495175366  0.90221479125   0.5
C 0.856060718881  0.856060718881   0.5
C 0.903911676674  0.903911676674   0.5
%ENDBLOCK POSITIONS_FRAC

SYMMETRY_GENERATE

KPOINTS_MP_GRID 3 3 1
