%BLOCK LATTICE_CART
14.9204328758  8.61431597965  0.0
14.9204328758  -8.61431597965  0.0
0.0  0.0  29.9999880884
%ENDBLOCK LATTICE_CART

%BLOCK POSITIONS_FRAC
C 0.0  0.0   0.5
C 0.047619047619  0.047619047619   0.5
C 0.142857142857  1.0   0.5
C 0.190476190476  0.047619047619   0.5
C 0.285714285714  1.0   0.5
C 0.333333333333  0.047619047619   0.5
C 0.428571428571  1.0   0.5
C 0.47619047619  0.047619047619   0.5
C 0.571428571429  1.0   0.5
C 0.619047619048  0.047619047619   0.5
C 0.714285714286  1.0   0.5
C 0.761904761905  0.047619047619   0.5
C 0.857142857143  1.0   0.5
C 0.904761904762  0.047619047619   0.5
C 1.0  0.142857142857   0.5
C 0.047619047619  0.190476190476   0.5
C 0.142857142857  0.142857142857   0.5
C 0.190476190476  0.190476190476   0.5
C 0.285714285714  0.142857142857   0.5
C 0.333333333333  0.190476190476   0.5
C 0.428571428571  0.142857142857   0.5
C 0.47619047619  0.190476190476   0.5
C 0.571428571429  0.142857142857   0.5
C 0.619047619048  0.190476190476   0.5
C 0.714285714286  0.142857142857   0.5
C 0.761904761905  0.190476190476   0.5
C 0.857142857143  0.142857142857   0.5
C 0.904761904762  0.190476190476   0.5
C 1.0  0.285714285714   0.5
C 0.047619047619  0.333333333333   0.5
C 0.142857142857  0.285714285714   0.5
C 0.190476190476  0.333333333333   0.5
C 0.285714285714  0.285714285714   0.5
C 0.333333333333  0.333333333333   0.5
C 0.428571428571  0.285714285714   0.5
C 0.47619047619  0.333333333333   0.5
C 0.571428571429  0.285714285714   0.5
C 0.619047619048  0.333333333333   0.5
C 0.714285714286  0.285714285714   0.5
C 0.761904761905  0.333333333333   0.5
C 0.857142857143  0.285714285714   0.5
C 0.904761904762  0.333333333333   0.5
C 1.0  0.428571428571   0.5
C 0.047619047619  0.47619047619   0.5
C 0.142857142857  0.428571428571   0.5
C 0.190476190476  0.47619047619   0.5
C 0.285714285714  0.428571428571   0.5
C 0.333333333333  0.47619047619   0.5
C 0.428571428571  0.428571428571   0.5
C 0.47619047619  0.47619047619   0.5
C 0.571428571429  0.428571428571   0.5
C 0.619047619048  0.47619047619   0.5
C 0.714285714286  0.428571428571   0.5
C 0.761904761905  0.47619047619   0.5
C 0.857142857143  0.428571428571   0.5
C 0.904761904762  0.47619047619   0.5
C 1.0  0.571428571429   0.5
C 0.047619047619  0.619047619048   0.5
C 0.142857142857  0.571428571429   0.5
C 0.190476190476  0.619047619048   0.5
C 0.285714285714  0.571428571429   0.5
C 0.333333333333  0.619047619048   0.5
C 0.428571428571  0.571428571429   0.5
C 0.47619047619  0.619047619048   0.5
C 0.571428571429  0.571428571429   0.5
C 0.619047619048  0.619047619048   0.5
C 0.714285714286  0.571428571429   0.5
C 0.761904761905  0.619047619048   0.5
C 0.857142857143  0.571428571429   0.5
C 0.904761904762  0.619047619048   0.5
C 1.0  0.714285714286   0.5
C 0.047619047619  0.761904761905   0.5
C 0.142857142857  0.714285714286   0.5
C 0.190476190476  0.761904761905   0.5
C 0.285714285714  0.714285714286   0.5
C 0.333333333333  0.761904761905   0.5
C 0.428571428571  0.714285714286   0.5
C 0.47619047619  0.761904761905   0.5
C 0.571428571429  0.714285714286   0.5
C 0.619047619048  0.761904761905   0.5
C 0.714285714286  0.714285714286   0.5
C 0.761904761905  0.761904761905   0.5
C 0.857142857143  0.714285714286   0.5
C 0.904761904762  0.761904761905   0.5
C 1.0  0.857142857143   0.5
C 0.047619047619  0.904761904762   0.5
C 0.142857142857  0.857142857143   0.5
C 0.190476190476  0.904761904762   0.5
C 0.285714285714  0.857142857143   0.5
C 0.333333333333  0.904761904762   0.5
C 0.428571428571  0.857142857143   0.5
C 0.47619047619  0.904761904762   0.5
C 0.571428571429  0.857142857143   0.5
C 0.619047619048  0.904761904762   0.5
C 0.714285714286  0.857142857143   0.5
C 0.761904761905  0.904761904762   0.5
C 0.857142857143  0.857142857143   0.5
C 0.904761904762  0.904761904762   0.5
%ENDBLOCK POSITIONS_FRAC

SYMMETRY_GENERATE

KPOINTS_MP_GRID 3 3 1
